param C :	
	1	2	3	4	5	6	:=
1	13150	9650	19950	5000	9650	15950
2	19950	6500	19950	9650	11150	15950
3	17150	15950	19950	15950	15950	7000
;
param Cap:=
    1	600
    2	600
    3	250
;
param Dem:=
    1 280
    2 250
    3 240
    4 170
    5 210
    6 300
;
